p cnf 14 64
6 -9 10 0
6 -11 -13 0
3 -11 -12 0
-3 -5 13 0
-1 -4 14 0
1 8 -12 0
2 -7 -11 0
-2 3 12 0
-1 5 -11 0
-2 -4 -6 0
3 -4 5 0
1 -4 -9 0
-2 -6 -11 0
-1 4 -9 0
3 -4 9 0
-3 5 -11 0
-2 8 14 0
-3 -9 13 0
-3 -8 10 0
-2 -3 10 0
4 -6 -7 0
3 13 -14 0
-7 -10 11 0
-10 11 -12 0
-5 8 14 0
-3 6 11 0
11 12 -14 0
-6 -8 9 0
-1 3 -7 0
3 -5 12 0
-1 -7 -9 0
1 3 -9 0
-5 7 10 0
-7 -9 11 0
11 -13 14 0
-6 -11 13 0
1 9 -14 0
-6 8 -12 0
-5 -8 -10 0
-1 5 -14 0
-1 5 -10 0
-3 8 14 0
8 -9 14 0
1 -3 -7 0
-2 8 -11 0
-2 7 -9 0
-4 5 11 0
2 8 10 0
-1 -5 -9 0
3 13 14 0
1 3 5 0
9 10 12 0
1 2 9 0
-4 -6 -10 0
-7 8 -12 0
-2 -6 -10 0
2 8 13 0
6 -9 -14 0
-4 -11 -12 0
4 -7 13 0
-1 2 -13 0
-1 -8 -13 0
4 7 9 0
6 9 12 0
